c   #vars: 43   #clauses: 183   #literals: 550
c 
p cnf 43 183
-1 -2 0
5 25 26 -37 0
-8 27 33 34 0
10 -32 35 36 0
-6 -7 0
-8 -9 0
13 20 21 -33 0
-11 -12 0
16 37 38 -39 0
-14 -15 0
24 33 34 -42 0
-17 -18 0
3 22 23 -42 0
-20 -21 0
-22 -23 0
-10 14 15 32 0
-25 -26 0
-28 -29 0
10 -14 32 -36 0
14 15 39 40 0
-30 -31 0
-27 28 29 41 0
-33 -34 0
1 2 22 23 0
-35 -36 0
-37 -38 0
27 33 34 -41 0
-39 -40 0
14 15 20 21 0
4 25 26 -39 0
20 21 37 38 0
-42 -43 0
-2 -19 0
-1 -22 0
-2 -23 0
8 9 35 36 0
-1 -28 0
-2 -29 0
8 9 30 31 0
-1 -33 0
-2 -34 0
4 -17 39 40 0
-1 -41 0
5 -17 25 26 0
-3 -23 0
6 7 39 40 0
5 17 18 -37 0
-3 -36 0
1 2 -10 19 0
5 17 18 -25 0
-3 -43 0
8 9 27 -41 0
-4 -18 0
-10 19 42 43 0
8 9 27 -33 0
-4 -26 0
10 -14 -19 32 0
-4 -40 0
1 2 33 34 0
4 17 18 -39 0
-1 10 19 -32 0
10 -19 35 36 0
-5 -18 0
-2 -8 27 41 0
-5 -26 0
16 -30 39 40 0
-8 27 -29 41 0
-5 -38 0
-6 -20 0
-7 -21 0
-6 -28 0
-7 -29 0
10 19 -32 -42 0
-6 -37 0
-7 -38 0
20 21 30 31 0
-6 -39 0
-7 -40 0
3 -35 42 43 0
-9 -27 0
11 12 25 26 0
-8 -28 0
-9 -29 0
-8 -30 0
-9 -31 0
6 7 37 38 0
-2 28 29 41 0
-9 -32 0
-8 -35 0
-9 -36 0
28 29 39 40 0
13 -17 20 21 0
11 12 33 34 0
1 2 -29 41 0
13 17 18 -33 0
6 7 20 21 0
-10 -35 0
13 17 18 -20 0
3 -22 35 36 0
24 30 31 -42 0
-1 10 19 -36 0
-11 -22 0
-12 -23 0
-11 -25 0
-12 -26 0
-2 27 -33 41 0
-11 -33 0
-12 -34 0
3 22 23 -35 0
-11 -42 0
-12 -43 0
16 -30 37 38 0
-13 -18 0
17 18 42 43 0
16 30 31 -39 0
-13 -21 0
25 26 33 34 0
16 30 31 -37 0
-13 -34 0
20 21 35 36 0
4 -25 39 40 0
24 30 31 -33 0
8 9 28 29 0
-14 -20 0
-15 -21 0
16 -37 39 40 0
1 2 -27 41 0
-15 -32 0
1 2 28 29 0
-14 -37 0
-15 -38 0
6 7 28 29 0
-14 -39 0
-15 -40 0
1 2 19 -42 0
24 -30 33 34 0
-16 -31 0
-11 -12 14 15 0
-16 -38 0
11 12 -14 -15 0
-16 -40 0
-17 -42 0
-18 -43 0
5 -17 37 38 0
13 -17 33 34 0
10 19 -36 -42 0
24 -30 42 43 0
-19 -43 0
-1 19 42 43 0
13 -20 33 34 0
5 -25 37 38 0
-20 -30 0
-21 -31 0
-20 -35 0
-21 -36 0
11 12 42 43 0
-20 -37 0
-21 -38 0
22 23 39 40 0
-22 -39 0
-23 -40 0
-8 14 15 32 0
-24 -31 0
24 -33 42 43 0
8 9 -14 32 0
-24 -34 0
11 12 22 23 0
8 9 -10 32 0
-24 -43 0
4 -17 25 26 0
-25 -33 0
-26 -34 0
-8 10 32 -36 0
3 -22 42 43 0
-27 -34 0
-8 10 -19 32 0
4 17 18 -25 0
3 35 36 -42 0
14 15 37 38 0
-28 -39 0
-29 -40 0
27 -29 -33 41 0
-28 -41 0
